
Gurobi 9.5.2 (mac64[arm]) logging started Fri Apr 28 19:48:08 2023

Set parameter LogFile to value "Java/output/iterative_model_2_machine/scenario_seed_1_nJob_50_machineCount_2/mip_increment_1/log.txt"
Gurobi Optimizer version 9.5.2 build v9.5.2rc0 (mac64[arm])
Thread count: 8 physical cores, 8 logical processors, using up to 8 threads
Optimize a model with 2552 rows, 19776 columns and 209098 nonzeros
Model fingerprint: 0xe8217e57
Variable types: 0 continuous, 19776 integer (19776 binary)
Coefficient statistics:
  Matrix range     [1e+00, 2e+02]
  Objective range  [6e+01, 4e+06]
  Bounds range     [1e+00, 1e+00]
  RHS range        [1e+00, 1e+00]
Found heuristic solution: objective 1.065002e+07
Presolve removed 155 rows and 1865 columns
Presolve time: 0.23s
Presolved: 2397 rows, 17911 columns, 189607 nonzeros
Variable types: 0 continuous, 17911 integer (17911 binary)
Found heuristic solution: objective 4596832.0000

Root relaxation: objective 8.484123e+03, 2872 iterations, 0.19 seconds (0.50 work units)

    Nodes    |    Current Node    |     Objective Bounds      |     Work
 Expl Unexpl |  Obj  Depth IntInf | Incumbent    BestBd   Gap | It/Node Time

     0     0 8484.12318    0  157 4596832.00 8484.12318   100%     -    0s
H    0     0                    3715264.0000 8484.12318   100%     -    0s
H    0     0                    3537440.0000 8484.12318   100%     -    0s
     0     0 8539.79968    0  235 3537440.00 8539.79968   100%     -    1s
H    0     0                    9520.0000000 8539.79968  10.3%     -    1s
H    0     0                    9296.0000000 8539.79968  8.13%     -    1s
     0     0 8539.79968    0  235 9296.00000 8539.79968  8.13%     -    1s
     0     0 8550.78660    0  252 9296.00000 8550.78660  8.02%     -    1s
     0     0 8550.78660    0  140 9296.00000 8550.78660  8.02%     -    2s
     0     0 8550.78660    0  234 9296.00000 8550.78660  8.02%     -    2s
     0     0 8553.89777    0  238 9296.00000 8553.89777  7.98%     -    2s
     0     0 8553.89777    0  241 9296.00000 8553.89777  7.98%     -    2s
     0     0 8568.06285    0  291 9296.00000 8568.06285  7.83%     -    2s
     0     0 8569.80442    0  292 9296.00000 8569.80442  7.81%     -    2s
     0     0 8569.92617    0  293 9296.00000 8569.92617  7.81%     -    2s
     0     0 8569.92981    0  291 9296.00000 8569.92981  7.81%     -    2s
H    0     0                    9232.0000000 8569.92981  7.17%     -    2s
     0     0 8588.17687    0  297 9232.00000 8588.17687  6.97%     -    2s
     0     0 8590.53374    0  307 9232.00000 8590.53374  6.95%     -    2s
     0     0 8590.88960    0  301 9232.00000 8590.88960  6.94%     -    2s
     0     0 8590.92217    0  308 9232.00000 8590.92217  6.94%     -    2s
     0     0 8600.94167    0  342 9232.00000 8600.94167  6.84%     -    2s
     0     0 8604.48099    0  337 9232.00000 8604.48099  6.80%     -    3s
H    0     0                    9104.0000000 8604.48099  5.49%     -    3s
     0     0 8605.78658    0  349 9104.00000 8605.78658  5.47%     -    3s
     0     0 8605.87699    0  341 9104.00000 8605.87699  5.47%     -    3s
     0     0 8605.88444    0  347 9104.00000 8605.88444  5.47%     -    3s
     0     0 8620.50905    0  368 9104.00000 8620.50905  5.31%     -    3s
H    0     0                    9088.0000000 8620.50905  5.14%     -    3s
H    0     0                    9056.0000000 8620.50905  4.81%     -    3s
     0     0 8622.68830    0  365 9056.00000 8622.68830  4.78%     -    3s
     0     0 8623.81132    0  371 9056.00000 8623.81132  4.77%     -    3s
     0     0 8624.02866    0  384 9056.00000 8624.02866  4.77%     -    3s
     0     0 8624.06928    0  384 9056.00000 8624.06928  4.77%     -    3s
     0     0 8636.61020    0  372 9056.00000 8636.61020  4.63%     -    3s
     0     0 8639.93838    0  390 9056.00000 8639.93838  4.59%     -    3s
     0     0 8641.10714    0  405 9056.00000 8641.10714  4.58%     -    3s
     0     0 8641.38197    0  404 9056.00000 8641.38197  4.58%     -    3s
     0     0 8641.46787    0  407 9056.00000 8641.46787  4.58%     -    3s
     0     0 8644.85125    0  381 9056.00000 8644.85125  4.54%     -    3s
     0     0 8646.52248    0  403 9056.00000 8646.52248  4.52%     -    3s
     0     0 8647.00872    0  400 9056.00000 8647.00872  4.52%     -    3s
     0     0 8647.04659    0  411 9056.00000 8647.04659  4.52%     -    4s
     0     0 8652.05015    0  420 9056.00000 8652.05015  4.46%     -    4s
     0     0 8653.58699    0  423 9056.00000 8653.58699  4.44%     -    4s
     0     0 8654.08932    0  416 9056.00000 8654.08932  4.44%     -    4s
     0     0 8654.31790    0  411 9056.00000 8654.31790  4.44%     -    4s
     0     0 8654.45022    0  407 9056.00000 8654.45022  4.43%     -    4s
     0     0 8657.39706    0  438 9056.00000 8657.39706  4.40%     -    4s
     0     0 8658.52012    0  423 9056.00000 8658.52012  4.39%     -    4s
     0     0 8658.76851    0  420 9056.00000 8658.76851  4.39%     -    4s
     0     0 8658.81128    0  427 9056.00000 8658.81128  4.39%     -    4s
     0     0 8660.04000    0  446 9056.00000 8660.04000  4.37%     -    4s
     0     0 8660.28017    0  435 9056.00000 8660.28017  4.37%     -    4s
     0     0 8660.46491    0  458 9056.00000 8660.46491  4.37%     -    4s
     0     0 8660.50001    0  460 9056.00000 8660.50001  4.37%     -    4s
     0     0 8661.37595    0  456 9056.00000 8661.37595  4.36%     -    4s
     0     0 8661.37595    0  456 9056.00000 8661.37595  4.36%     -    4s
     0     2 8661.43851    0  455 9056.00000 8661.43851  4.36%     -    5s
H   69    74                    9008.0000000 8668.28776  3.77%   901    7s
H   97   104                    8976.0000000 8668.28776  3.43%   789    7s
H  104   104                    8944.0000000 8668.28776  3.08%   781    7s
H  105   112                    8928.0000000 8668.28776  2.91%   778    8s
H  147   139                    8880.0000000 8668.28776  2.38%   714    8s
   263   205 8750.76896    8  317 8880.00000 8671.36582  2.35%   611   10s
   926   603     cutoff   24      8880.00000 8685.03550  2.20%   517   15s
  1403   845 8844.72706   21  262 8880.00000 8688.30449  2.16%   480   20s
  1614   928 8782.92050   17  506 8880.00000 8689.22323  2.15%   459   25s
  1636   942 8872.97121   13  489 8880.00000 8689.22323  2.15%   453   30s
  1651   961 8782.52403   15  367 8880.00000 8696.37313  2.07%   475   35s
  1768  1004 8812.63309   21  372 8880.00000 8702.18744  2.00%   514   40s
  1933  1026 infeasible   33      8880.00000 8702.18744  2.00%   542   45s
  2305  1088 8796.09979   20  453 8880.00000 8704.71096  1.97%   558   50s
* 2630  1013              25    8864.0000000 8704.71096  1.80%   559   54s
  2658  1007     cutoff   29      8864.00000 8717.35360  1.65%   559   55s
  2898  1017 8858.26808   23  318 8864.00000 8717.35360  1.65%   572   61s
  3126  1006 8830.98466   31  382 8864.00000 8731.05384  1.50%   577   65s
  3544   936     cutoff   27      8864.00000 8741.93773  1.38%   579   71s
  3905   893     cutoff   37      8864.00000 8751.21310  1.27%   579   75s
  4384   848 8805.84006   35  393 8864.00000 8757.53583  1.20%   585   81s
  4777   935 8766.41729   26  436 8864.00000 8762.24827  1.15%   585   86s
  5266   999 8792.86156   25  384 8864.00000 8766.54998  1.10%   584   91s
* 5534   768              34    8832.0000000 8768.60779  0.72%   583   93s
  5594   750     cutoff   28      8832.00000 8769.60687  0.71%   586   96s
H 5806   542                    8816.0000000 8772.01067  0.50%   585   98s
  5886   499     cutoff   36      8816.00000 8772.63008  0.49%   585  100s
  6332   418     cutoff   26      8816.00000 8779.06897  0.42%   582  105s
  6805   147 8801.77114   27  379 8816.00000 8789.17864  0.30%   576  110s

Cutting planes:
  Cover: 22
  Clique: 147
  MIR: 389
  StrongCG: 164
  Flow cover: 126
  GUB cover: 102
  Zero half: 5
  Mod-K: 1

Explored 7390 nodes (4121165 simplex iterations) in 111.46 seconds (344.15 work units)
Thread count was 8 (of 8 available processors)

Solution count 10: 8816 8832 8864 ... 9088

Optimal solution found (tolerance 1.00e-04)
Best objective 8.816000000000e+03, best bound 8.816000000000e+03, gap 0.0000%

Gurobi 9.5.2 (mac64[arm]) logging started Fri Apr 28 19:50:00 2023

Set parameter LogFile to value "Java/output/iterative_model_2_machine/scenario_seed_1_nJob_50_machineCount_2/mip_increment_1/log.txt"
Gurobi Optimizer version 9.5.2 build v9.5.2rc0 (mac64[arm])
Thread count: 8 physical cores, 8 logical processors, using up to 8 threads
Optimize a model with 2558 rows, 16971 columns and 200071 nonzeros
Model fingerprint: 0x7871c6fc
Variable types: 0 continuous, 16971 integer (16971 binary)
Coefficient statistics:
  Matrix range     [1e+00, 2e+02]
  Objective range  [1e+02, 8e+05]
  Bounds range     [1e+00, 1e+00]
  RHS range        [1e+00, 1e+00]
Presolve removed 664 rows and 2754 columns
Presolve time: 0.25s
Presolved: 1894 rows, 14217 columns, 166545 nonzeros
Variable types: 0 continuous, 14217 integer (14213 binary)

Root relaxation: objective 5.034158e+03, 2749 iterations, 0.15 seconds (0.34 work units)

    Nodes    |    Current Node    |     Objective Bounds      |     Work
 Expl Unexpl |  Obj  Depth IntInf | Incumbent    BestBd   Gap | It/Node Time

     0     0 5034.15751    0  146          - 5034.15751      -     -    0s
H    0     0                    1313004.0000 5034.15751   100%     -    0s
H    0     0                    1198548.0000 5034.15751   100%     -    0s
H    0     0                    941856.00000 5034.15751  99.5%     -    0s
H    0     0                    640200.00000 5034.15751  99.2%     -    0s
H    0     0                    635828.00000 5039.98495  99.2%     -    0s
     0     0 5039.98495    0  191 635828.000 5039.98495  99.2%     -    0s
H    0     0                    39548.000000 5039.98495  87.3%     -    1s
     0     0 5040.05330    0  198 39548.0000 5040.05330  87.3%     -    1s
     0     0 5040.05519    0  201 39548.0000 5040.05519  87.3%     -    1s
H    0     0                    38812.000000 5040.05519  87.0%     -    1s
     0     0 5045.81736    0  208 38812.0000 5045.81736  87.0%     -    1s
     0     0 5045.81736    0  138 38812.0000 5045.81736  87.0%     -    1s
H    0     0                    26152.000000 5045.81736  80.7%     -    1s
     0     0 5045.81736    0  218 26152.0000 5045.81736  80.7%     -    2s
H    0     0                    21132.000000 5045.81736  76.1%     -    2s
     0     0 5046.33150    0  242 21132.0000 5046.33150  76.1%     -    2s
     0     0 5046.45630    0  230 21132.0000 5046.45630  76.1%     -    2s
     0     0 5046.55579    0  236 21132.0000 5046.55579  76.1%     -    2s
     0     0 5046.56052    0  235 21132.0000 5046.56052  76.1%     -    2s
     0     0 5046.56249    0  233 21132.0000 5046.56249  76.1%     -    2s
     0     0 5053.14791    0  255 21132.0000 5053.14791  76.1%     -    2s
H    0     0                    17196.000000 5053.14791  70.6%     -    2s
     0     0 5053.92831    0  250 17196.0000 5053.92831  70.6%     -    2s
     0     0 5054.82324    0  251 17196.0000 5054.82324  70.6%     -    2s
     0     0 5054.83619    0  251 17196.0000 5054.83619  70.6%     -    2s
     0     0 5054.83774    0  249 17196.0000 5054.83774  70.6%     -    2s
     0     0 5062.93816    0  256 17196.0000 5062.93816  70.6%     -    2s
H    0     0                    17168.000000 5062.93816  70.5%     -    3s
     0     0 5067.78008    0  284 17168.0000 5067.78008  70.5%     -    3s
     0     0 5069.67090    0  291 17168.0000 5069.67090  70.5%     -    3s
     0     0 5069.77927    0  292 17168.0000 5069.77927  70.5%     -    3s
H    0     0                    16920.000000 5069.77927  70.0%     -    3s
H    0     0                    16916.000000 5069.77927  70.0%     -    3s
     0     0 5069.79834    0  285 16916.0000 5069.79834  70.0%     -    3s
     0     0 5069.79834    0  286 16916.0000 5069.79834  70.0%     -    3s
     0     0 5090.33826    0  298 16916.0000 5090.33826  69.9%     -    3s
H    0     0                    16872.000000 5090.33826  69.8%     -    3s
     0     0 5095.67797    0  308 16872.0000 5095.67797  69.8%     -    3s
     0     0 5096.86542    0  326 16872.0000 5096.86542  69.8%     -    3s
     0     0 5097.24523    0  322 16872.0000 5097.24523  69.8%     -    3s
     0     0 5097.25483    0  325 16872.0000 5097.25483  69.8%     -    3s
     0     0 5114.87981    0  290 16872.0000 5114.87981  69.7%     -    4s
     0     0 5118.11421    0  323 16872.0000 5118.11421  69.7%     -    4s
     0     0 5118.46947    0  335 16872.0000 5118.46947  69.7%     -    4s
     0     0 5118.72011    0  332 16872.0000 5118.72011  69.7%     -    4s
     0     0 5118.76658    0  351 16872.0000 5118.76658  69.7%     -    4s
     0     0 5129.25287    0  326 16872.0000 5129.25287  69.6%     -    4s
     0     0 5131.40357    0  347 16872.0000 5131.40357  69.6%     -    4s
     0     0 5133.04401    0  364 16872.0000 5133.04401  69.6%     -    4s
     0     0 5133.37932    0  380 16872.0000 5133.37932  69.6%     -    4s
     0     0 5133.46234    0  382 16872.0000 5133.46234  69.6%     -    4s
     0     0 5133.50050    0  381 16872.0000 5133.50050  69.6%     -    4s
H    0     0                    14488.000000 5133.50050  64.6%     -    5s
     0     0 5146.26819    0  351 14488.0000 5146.26819  64.5%     -    5s
H    0     0                    14328.000000 5146.26819  64.1%     -    5s
H    0     0                    14188.000000 5146.26819  63.7%     -    5s
     0     0 5147.66339    0  355 14188.0000 5147.66339  63.7%     -    5s
     0     0 5148.21393    0  372 14188.0000 5148.21393  63.7%     -    5s
     0     0 5148.38917    0  377 14188.0000 5148.38917  63.7%     -    5s
     0     0 5148.45009    0  364 14188.0000 5148.45009  63.7%     -    5s
     0     0 5153.22103    0  374 14188.0000 5153.22103  63.7%     -    5s
     0     0 5153.99339    0  378 14188.0000 5153.99339  63.7%     -    5s
     0     0 5154.25843    0  379 14188.0000 5154.25843  63.7%     -    5s
     0     0 5154.39399    0  378 14188.0000 5154.39399  63.7%     -    5s
     0     0 5154.42148    0  385 14188.0000 5154.42148  63.7%     -    5s
H    0     0                    14180.000000 5154.42148  63.7%     -    6s
     0     0 5158.97919    0  386 14180.0000 5158.97919  63.6%     -    6s
     0     0 5159.63096    0  387 14180.0000 5159.63096  63.6%     -    6s
     0     0 5159.88372    0  394 14180.0000 5159.88372  63.6%     -    6s
     0     0 5159.97056    0  394 14180.0000 5159.97056  63.6%     -    6s
H    0     0                    6828.0000000 5159.97056  24.4%     -    6s
     0     0 5176.86157    0  348 6828.00000 5176.86157  24.2%     -    6s
H    0     0                    6688.0000000 5176.86157  22.6%     -    6s
     0     0 5181.90198    0  367 6688.00000 5181.90198  22.5%     -    6s
     0     0 5182.64276    0  352 6688.00000 5182.64276  22.5%     -    6s
     0     0 5182.78909    0  356 6688.00000 5182.78909  22.5%     -    6s
     0     0 5182.88066    0  367 6688.00000 5182.88066  22.5%     -    6s
H    0     0                    6608.0000000 5182.88066  21.6%     -    6s
     0     0 5188.28687    0  361 6608.00000 5188.28687  21.5%     -    7s
H    0     0                    6600.0000000 5188.28687  21.4%     -    7s
H    0     0                    6224.0000000 5188.28687  16.6%     -    7s
     0     0 5190.54983    0  381 6224.00000 5190.54983  16.6%     -    7s
H    0     0                    6196.0000000 5190.54983  16.2%     -    7s
     0     0 5191.69061    0  392 6196.00000 5191.69061  16.2%     -    7s
     0     0 5191.89598    0  391 6196.00000 5191.89598  16.2%     -    7s
     0     0 5191.93246    0  397 6196.00000 5191.93246  16.2%     -    7s
     0     0 5195.65162    0  394 6196.00000 5195.65162  16.1%     -    7s
     0     0 5195.65162    0  159 6196.00000 5195.65162  16.1%     -    7s
     0     0 5195.65162    0  231 6196.00000 5195.65162  16.1%     -    8s
     0     0 5195.65162    0  290 6196.00000 5195.65162  16.1%     -    8s
     0     0 5195.65162    0  334 6196.00000 5195.65162  16.1%     -    8s
     0     0 5196.97653    0  331 6196.00000 5196.97653  16.1%     -    8s
     0     0 5198.71132    0  349 6196.00000 5198.71132  16.1%     -    8s
     0     0 5199.36730    0  360 6196.00000 5199.36730  16.1%     -    8s
     0     0 5199.55997    0  353 6196.00000 5199.55997  16.1%     -    8s
     0     0 5199.58788    0  367 6196.00000 5199.58788  16.1%     -    8s
     0     0 5199.59264    0  359 6196.00000 5199.59264  16.1%     -    8s
     0     0 5203.14117    0  379 6196.00000 5203.14117  16.0%     -    8s
     0     0 5203.75777    0  353 6196.00000 5203.75777  16.0%     -    8s
H    0     0                    5544.0000000 5203.75777  6.14%     -    8s
     0     0 5204.20737    0  387 5544.00000 5204.20737  6.13%     -    8s
     0     0 5204.40423    0  376 5544.00000 5204.40423  6.13%     -    8s
     0     0 5204.49933    0  382 5544.00000 5204.49933  6.12%     -    8s
     0     0 5211.52530    0  383 5544.00000 5211.52530  6.00%     -    9s
     0     0 5214.08954    0  395 5544.00000 5214.08954  5.95%     -    9s
     0     0 5214.86105    0  378 5544.00000 5214.86105  5.94%     -    9s
     0     0 5215.10298    0  376 5544.00000 5215.10298  5.93%     -    9s
     0     0 5215.16462    0  373 5544.00000 5215.16462  5.93%     -    9s
     0     0 5216.95471    0  382 5544.00000 5216.95471  5.90%     -    9s
     0     0 5217.76070    0  376 5544.00000 5217.76070  5.88%     -   10s
     0     0 5218.07131    0  387 5544.00000 5218.07131  5.88%     -   10s
     0     0 5218.09852    0  390 5544.00000 5218.09852  5.88%     -   10s
     0     0 5218.60043    0  392 5544.00000 5218.60043  5.87%     -   10s
     0     0 5218.60043    0  391 5544.00000 5218.60043  5.87%     -   10s
     0     2 5218.63074    0  387 5544.00000 5218.63074  5.87%     -   10s
H   32    40                    5360.0000000 5222.21532  2.57%   898   12s
H   68    77                    5344.0000000 5222.21532  2.28%   669   13s
H   69    77                    5336.0000000 5222.21532  2.13%   663   13s
H   70    77                    5332.0000000 5222.21532  2.06%   672   13s
H  103   108                    5328.0000000 5222.21532  1.99%   709   13s
H  105   108                    5312.0000000 5222.21532  1.69%   710   13s
H  114   115                    5304.0000000 5222.21532  1.54%   708   14s
H  144   138                    5300.0000000 5222.21532  1.47%   656   14s
   183   179 5286.90239   20  355 5300.00000 5222.21532  1.47%   650   15s
H  185   179                    5288.0000000 5222.21532  1.24%   648   15s
   676   403 5285.57855   14  248 5288.00000 5228.57575  1.12%   541   20s
  1327   700 5269.43332   10  337 5288.00000 5231.12554  1.08%   507   25s
  2081  1031 5256.92230   16  337 5288.00000 5236.56528  0.97%   474   30s
  2801  1322 5274.33245   14  238 5288.00000 5239.79377  0.91%   473   35s
  3001  1336 5253.38041   17  396 5288.00000 5240.14683  0.90%   464   40s
  3024  1360 5240.14683   13  346 5288.00000 5240.14683  0.90%   471   45s
  3265  1407 5262.57254   25  292 5288.00000 5240.14683  0.90%   478   50s
  3928  1416     cutoff   22      5288.00000 5243.24425  0.85%   464   55s
  4781  1343 5271.19039   19  310 5288.00000 5250.69264  0.71%   445   60s
  5916  1194     cutoff   23      5288.00000 5254.53179  0.63%   424   65s
  6737  1085 5261.93055   18  336 5288.00000 5256.41715  0.60%   415   70s
  8017  1114 5274.87282   18  265 5288.00000 5259.30250  0.54%   402   75s
  8948  1191     cutoff   27      5288.00000 5262.14177  0.49%   394   80s
 10118  1228     cutoff   31      5288.00000 5264.69484  0.44%   384   86s
 11360  1071     cutoff   31      5288.00000 5268.31438  0.37%   376   90s
 12621   763 5281.70522   19  285 5288.00000 5272.85950  0.29%   367   95s
 13308   437 5279.52020   28  273 5288.00000 5275.31290  0.24%   362  100s

Cutting planes:
  Gomory: 2
  Cover: 5
  Clique: 61
  MIR: 148
  StrongCG: 62
  Flow cover: 34
  GUB cover: 78
  Zero half: 8
  Mod-K: 1
  RLT: 9

Explored 14922 nodes (5140660 simplex iterations) in 101.44 seconds (314.75 work units)
Thread count was 8 (of 8 available processors)

Solution count 10: 5288 5300 5304 ... 5544

Optimal solution found (tolerance 1.00e-04)
Best objective 5.288000000000e+03, best bound 5.288000000000e+03, gap 0.0000%

Gurobi 9.5.2 (mac64[arm]) logging started Fri Apr 28 19:51:42 2023

Set parameter LogFile to value "Java/output/iterative_model_2_machine/scenario_seed_1_nJob_50_machineCount_2/mip_increment_1/log.txt"
Gurobi Optimizer version 9.5.2 build v9.5.2rc0 (mac64[arm])
Thread count: 8 physical cores, 8 logical processors, using up to 8 threads
Optimize a model with 2564 rows, 12179 columns and 144257 nonzeros
Model fingerprint: 0x579eb068
Variable types: 0 continuous, 12179 integer (12179 binary)
Coefficient statistics:
  Matrix range     [1e+00, 2e+02]
  Objective range  [9e+01, 9e+04]
  Bounds range     [1e+00, 1e+00]
  RHS range        [1e+00, 1e+00]
Presolve removed 1268 rows and 1888 columns
Presolve time: 0.14s
Presolved: 1296 rows, 10291 columns, 121748 nonzeros
Variable types: 0 continuous, 10291 integer (10291 binary)

Root relaxation: objective 2.613265e+03, 2509 iterations, 0.12 seconds (0.27 work units)

    Nodes    |    Current Node    |     Objective Bounds      |     Work
 Expl Unexpl |  Obj  Depth IntInf | Incumbent    BestBd   Gap | It/Node Time

     0     0 2613.26503    0  131          - 2613.26503      -     -    0s
H    0     0                    174560.00000 2613.26503  98.5%     -    0s
H    0     0                    102169.00000 2613.26503  97.4%     -    0s
H    0     0                    95281.000000 2613.26503  97.3%     -    0s
H    0     0                    74204.000000 2613.26503  96.5%     -    0s
H    0     0                    72855.000000 2622.03291  96.4%     -    0s
     0     0 2622.03291    0  184 72855.0000 2622.03291  96.4%     -    0s
H    0     0                    24266.000000 2622.03291  89.2%     -    0s
     0     0 2622.63510    0  187 24266.0000 2622.63510  89.2%     -    0s
     0     0 2622.64049    0  186 24266.0000 2622.64049  89.2%     -    0s
     0     0 2634.88737    0  164 24266.0000 2634.88737  89.1%     -    1s
H    0     0                    23911.000000 2634.88737  89.0%     -    1s
H    0     0                    23910.000000 2634.88737  89.0%     -    1s
     0     0 2635.40528    0  159 23910.0000 2635.40528  89.0%     -    1s
     0     0 2635.62915    0  176 23910.0000 2635.62915  89.0%     -    1s
     0     0 2635.62915    0  179 23910.0000 2635.62915  89.0%     -    1s
     0     0 2646.12149    0  175 23910.0000 2646.12149  88.9%     -    1s
     0     0 2649.65417    0  176 23910.0000 2649.65417  88.9%     -    1s
     0     0 2649.87326    0  161 23910.0000 2649.87326  88.9%     -    1s
     0     0 2649.87326    0  162 23910.0000 2649.87326  88.9%     -    1s
     0     0 2653.68154    0  219 23910.0000 2653.68154  88.9%     -    1s
     0     0 2654.35883    0  207 23910.0000 2654.35883  88.9%     -    1s
     0     0 2654.42982    0  205 23910.0000 2654.42982  88.9%     -    2s
     0     0 2654.95613    0  164 23910.0000 2654.95613  88.9%     -    2s
     0     0 2655.01527    0  177 23910.0000 2655.01527  88.9%     -    2s
     0     0 2655.01878    0  184 23910.0000 2655.01878  88.9%     -    2s
     0     0 2655.31810    0  205 23910.0000 2655.31810  88.9%     -    2s
H    0     0                    23847.000000 2655.31810  88.9%     -    2s
     0     0 2655.69949    0  162 23847.0000 2655.69949  88.9%     -    2s
     0     0 2655.70146    0  171 23847.0000 2655.70146  88.9%     -    2s
     0     0 2656.85203    0  191 23847.0000 2656.85203  88.9%     -    2s
H    0     0                    23846.000000 2656.85203  88.9%     -    2s
H    0     0                    8985.0000000 2656.85203  70.4%     -    2s
     0     0 2657.36984    0  180 8985.00000 2657.36984  70.4%     -    2s
     0     0 2657.36984    0  182 8985.00000 2657.36984  70.4%     -    2s
     0     0 2657.56726    0  184 8985.00000 2657.56726  70.4%     -    2s
H    0     0                    8449.0000000 2657.56726  68.5%     -    2s
     0     0 2658.03507    0  180 8449.00000 2658.03507  68.5%     -    2s
     0     0 2658.05290    0  197 8449.00000 2658.05290  68.5%     -    2s
     0     0 2659.20342    0  171 8449.00000 2659.20342  68.5%     -    2s
H    0     0                    4378.0000000 2659.20342  39.3%     -    2s
     0     0 2659.20342    0  171 4378.00000 2659.20342  39.3%     -    2s
     0     0 2659.30572    0  215 4378.00000 2659.30572  39.3%     -    2s
     0     0 2659.30572    0  111 4378.00000 2659.30572  39.3%     -    3s
H    0     0                    4373.0000000 2659.30572  39.2%     -    3s
H    0     0                    4356.0000000 2659.30572  39.0%     -    3s
     0     0 2659.30572    0  182 4356.00000 2659.30572  39.0%     -    3s
     0     0 2659.30572    0  200 4356.00000 2659.30572  39.0%     -    3s
H    0     0                    4355.0000000 2659.30572  38.9%     -    3s
     0     0 2659.30572    0  164 4355.00000 2659.30572  38.9%     -    3s
     0     0 2659.30572    0  179 4355.00000 2659.30572  38.9%     -    3s
     0     0 2659.30572    0  200 4355.00000 2659.30572  38.9%     -    3s
     0     0 2659.30572    0  202 4355.00000 2659.30572  38.9%     -    3s
     0     0 2659.30572    0  215 4355.00000 2659.30572  38.9%     -    3s
     0     0 2659.30572    0  221 4355.00000 2659.30572  38.9%     -    3s
     0     0 2659.92550    0  223 4355.00000 2659.92550  38.9%     -    3s
     0     0 2659.92550    0  218 4355.00000 2659.92550  38.9%     -    3s
     0     0 2660.25278    0  201 4355.00000 2660.25278  38.9%     -    3s
     0     0 2660.28011    0  197 4355.00000 2660.28011  38.9%     -    3s
     0     0 2660.28011    0  198 4355.00000 2660.28011  38.9%     -    3s
     0     0 2660.95482    0  141 4355.00000 2660.95482  38.9%     -    3s
     0     0 2660.95482    0  139 4355.00000 2660.95482  38.9%     -    3s
     0     0 2661.01232    0  153 4355.00000 2661.01232  38.9%     -    3s
     0     0 2661.01232    0  140 4355.00000 2661.01232  38.9%     -    4s
H    0     0                    2676.0000000 2661.01232  0.56%     -    4s
     0     0 2661.41428    0  124 2676.00000 2661.41428  0.55%     -    4s
     0     0 2661.41428    0  126 2676.00000 2661.41428  0.55%     -    4s
     0     0 2661.41428    0  145 2676.00000 2661.41428  0.55%     -    4s
     0     0 2661.41428    0  157 2676.00000 2661.41428  0.55%     -    4s
     0     0 2661.43187    0  150 2676.00000 2661.43187  0.54%     -    4s
     0     0 2661.43187    0  149 2676.00000 2661.43187  0.54%     -    4s
     0     0 2661.51996    0  205 2676.00000 2661.51996  0.54%     -    4s
H    0     0                    2669.0000000 2661.51996  0.28%     -    4s
     0     0 2661.71978    0  159 2669.00000 2661.71978  0.27%     -    4s
     0     0 2661.71978    0  166 2669.00000 2661.71978  0.27%     -    4s
     0     0 2661.90531    0  181 2669.00000 2661.90531  0.27%     -    4s
     0     0 2661.90531    0  111 2669.00000 2661.90531  0.27%     -    4s
     0     0 2661.90531    0  149 2669.00000 2661.90531  0.27%     -    4s
     0     0 2661.90531    0  142 2669.00000 2661.90531  0.27%     -    4s
     0     0 2662.83974    0  143 2669.00000 2662.83974  0.23%     -    4s
     0     0 2662.90208    0  136 2669.00000 2662.90208  0.23%     -    4s
     0     0 2664.57660    0  165 2669.00000 2664.57660  0.17%     -    4s
     0     0 2664.57660    0  161 2669.00000 2664.57660  0.17%     -    4s
     0     0 2664.59408    0  139 2669.00000 2664.59408  0.17%     -    4s
     0     0 2664.59408    0   75 2669.00000 2664.59408  0.17%     -    4s
     0     0 2664.59408    0  107 2669.00000 2664.59408  0.17%     -    4s
     0     0 2664.59408    0   24 2669.00000 2664.59408  0.17%     -    4s
     0     0 2664.59408    0  122 2669.00000 2664.59408  0.17%     -    4s
     0     0 2665.27876    0  130 2669.00000 2665.27876  0.14%     -    4s
     0     0 2665.32258    0  125 2669.00000 2665.32258  0.14%     -    4s
     0     0 2665.32258    0  125 2669.00000 2665.32258  0.14%     -    4s
     0     0 2665.38528    0  149 2669.00000 2665.38528  0.14%     -    5s
     0     0 2665.38528    0  141 2669.00000 2665.38528  0.14%     -    5s
     0     0 2666.00000    0  135 2669.00000 2666.00000  0.11%     -    5s
     0     0 2666.00000    0  128 2669.00000 2666.00000  0.11%     -    5s
     0     0 2666.00000    0  120 2669.00000 2666.00000  0.11%     -    5s
     0     0 2666.00000    0  129 2669.00000 2666.00000  0.11%     -    5s
     0     0 2666.00000    0  110 2669.00000 2666.00000  0.11%     -    5s
     0     0 2666.00000    0  112 2669.00000 2666.00000  0.11%     -    5s
     0     0 2666.00000    0  110 2669.00000 2666.00000  0.11%     -    5s
     0     0 2666.00000    0  110 2669.00000 2666.00000  0.11%     -    5s
     0     2 2666.00000    0  110 2669.00000 2666.00000  0.11%     -    5s
*    4     2               2    2667.0000000 2666.31373  0.03%  86.8    5s

Cutting planes:
  Gomory: 1
  Cover: 10
  Clique: 15
  MIR: 15
  StrongCG: 6
  GUB cover: 34
  Zero half: 9
  Mod-K: 3
  RLT: 3

Explored 5 nodes (36010 simplex iterations) in 5.11 seconds (8.32 work units)
Thread count was 8 (of 8 available processors)

Solution count 10: 2667 2669 2669 ... 8449

Optimal solution found (tolerance 1.00e-04)
Best objective 2.667000000000e+03, best bound 2.667000000000e+03, gap 0.0000%

Gurobi 9.5.2 (mac64[arm]) logging started Fri Apr 28 19:51:47 2023

Set parameter LogFile to value "Java/output/iterative_model_2_machine/scenario_seed_1_nJob_50_machineCount_2/mip_increment_1/log.txt"
Gurobi Optimizer version 9.5.2 build v9.5.2rc0 (mac64[arm])
Thread count: 8 physical cores, 8 logical processors, using up to 8 threads
Optimize a model with 2730 rows, 63448 columns and 730483 nonzeros
Model fingerprint: 0x770f57b7
Variable types: 0 continuous, 63448 integer (63448 binary)
Coefficient statistics:
  Matrix range     [1e+00, 2e+02]
  Objective range  [2e+00, 4e+06]
  Bounds range     [1e+00, 1e+00]
  RHS range        [1e+00, 1e+00]

Warning: Completing partial solution with 63294 unfixed non-continuous variables out of 63448
User MIP start produced solution with objective 16474 (0.05s)
Loaded user MIP start with objective 16474

Presolve removed 107 rows and 6723 columns
Presolve time: 0.73s
Presolved: 2623 rows, 56725 columns, 653933 nonzeros
Variable types: 0 continuous, 56725 integer (56721 binary)

Root simplex log...

Iteration    Objective       Primal Inf.    Dual Inf.      Time
   24965    1.4798332e+04   3.063350e+04   0.000000e+00      5s
   43918    1.5316627e+04   8.548298e+03   0.000000e+00     10s
   50677    1.5329405e+04   0.000000e+00   0.000000e+00     13s

Root relaxation: objective 1.532940e+04, 50677 iterations, 11.80 seconds (30.58 work units)

    Nodes    |    Current Node    |     Objective Bounds      |     Work
 Expl Unexpl |  Obj  Depth IntInf | Incumbent    BestBd   Gap | It/Node Time

     0     0 15329.4047    0  736 16474.0000 15329.4047  6.95%     -   13s
     0     0 15383.9804    0  849 16474.0000 15383.9804  6.62%     -   20s
     0     0 15383.9804    0  774 16474.0000 15383.9804  6.62%     -   30s
     0     0 15400.0071    0  908 16474.0000 15400.0071  6.52%     -   36s
     0     0 15403.5303    0  953 16474.0000 15403.5303  6.50%     -   38s
     0     0 15403.7185    0  957 16474.0000 15403.7185  6.50%     -   38s
     0     0 15403.7411    0  962 16474.0000 15403.7411  6.50%     -   38s
     0     0 15403.7434    0  973 16474.0000 15403.7434  6.50%     -   38s
     0     0 15448.8347    0 1054 16474.0000 15448.8347  6.22%     -   43s
     0     0 15462.5433    0 1079 16474.0000 15462.5433  6.14%     -   49s
     0     0 15466.9972    0 1102 16474.0000 15466.9972  6.11%     -   52s
     0     0 15467.2446    0 1139 16474.0000 15467.2446  6.11%     -   53s
     0     0 15467.2506    0 1137 16474.0000 15467.2506  6.11%     -   53s
     0     0 15500.8753    0 1155 16474.0000 15500.8753  5.91%     -   59s
H    0     0                    16460.000000 15500.8753  5.83%     -   59s
     0     0 15511.2624    0 1168 16460.0000 15511.2624  5.76%     -   63s
     0     0 15513.1732    0 1205 16460.0000 15513.1732  5.75%     -   65s
     0     0 15513.3020    0 1220 16460.0000 15513.3020  5.75%     -   65s
     0     0 15513.3123    0 1224 16460.0000 15513.3123  5.75%     -   65s
H    0     0                    16434.000000 15513.3123  5.60%     -   72s
     0     0 15537.8855    0 1193 16434.0000 15537.8855  5.45%     -   72s
     0     0 15544.6619    0 1254 16434.0000 15544.6619  5.41%     -   77s
     0     0 15545.2995    0 1272 16434.0000 15545.2995  5.41%     -   79s
     0     0 15545.4334    0 1257 16434.0000 15545.4334  5.41%     -   79s
     0     0 15545.4715    0 1279 16434.0000 15545.4715  5.41%     -   80s
     0     0 15559.0726    0 1334 16434.0000 15559.0726  5.32%     -   85s
H    0     0                    16429.000000 15559.0726  5.30%     -   88s
     0     0 15566.9288    0 1331 16429.0000 15566.9288  5.25%     -   93s
     0     0 15568.6620    0 1377 16429.0000 15568.6620  5.24%     -   95s
     0     0 15568.9981    0 1365 16429.0000 15568.9981  5.23%     -   96s
     0     0 15569.1171    0 1377 16429.0000 15569.1171  5.23%     -   97s
     0     0 15587.8832    0 1358 16429.0000 15587.8832  5.12%     -  105s
H    0     0                    16384.000000 15587.8832  4.86%     -  105s
     0     0 15594.1996    0 1335 16384.0000 15594.1996  4.82%     -  110s
     0     0 15599.5905    0 1381 16384.0000 15599.5905  4.79%     -  114s
     0     0 15601.5734    0 1389 16384.0000 15601.5734  4.78%     -  117s
     0     0 15602.3223    0 1401 16384.0000 15602.3223  4.77%     -  118s
     0     0 15602.7903    0 1408 16384.0000 15602.7903  4.77%     -  119s
     0     0 15602.8551    0 1399 16384.0000 15602.8551  4.77%     -  120s
     0     0 15612.4174    0 1410 16384.0000 15612.4174  4.71%     -  124s
H    0     0                    16383.000000 15612.4174  4.70%     -  124s
     0     0 15616.7786    0 1445 16383.0000 15616.7786  4.68%     -  144s
     0     0 15618.7341    0 1464 16383.0000 15618.7341  4.66%     -  147s
     0     0 15619.4474    0 1459 16383.0000 15619.4474  4.66%     -  149s
     0     0 15619.6057    0 1488 16383.0000 15619.6057  4.66%     -  150s
     0     0 15624.1018    0 1484 16383.0000 15624.1018  4.63%     -  154s
     0     0 15625.8327    0 1514 16383.0000 15625.8327  4.62%     -  158s
     0     0 15628.0683    0 1545 16383.0000 15628.0683  4.61%     -  161s
     0     0 15629.0060    0 1536 16383.0000 15629.0060  4.60%     -  163s
     0     0 15629.6008    0 1560 16383.0000 15629.6008  4.60%     -  165s
     0     0 15630.1162    0 1550 16383.0000 15630.1162  4.60%     -  167s
     0     0 15630.3773    0 1584 16383.0000 15630.3773  4.59%     -  169s
     0     0 15630.4408    0 1580 16383.0000 15630.4408  4.59%     -  169s
     0     0 15637.2165    0 1550 16383.0000 15637.2165  4.55%     -  177s
     0     0 15638.5990    0 1535 16383.0000 15638.5990  4.54%     -  180s
     0     0 15639.7442    0 1573 16383.0000 15639.7442  4.54%     -  183s
     0     0 15640.3830    0 1589 16383.0000 15640.3830  4.53%     -  185s
     0     0 15640.7245    0 1608 16383.0000 15640.7245  4.53%     -  186s
     0     0 15640.7873    0 1617 16383.0000 15640.7873  4.53%     -  186s
     0     0 15644.7375    0 1625 16383.0000 15644.7375  4.51%     -  192s
     0     0 15646.2248    0 1652 16383.0000 15646.2248  4.50%     -  195s
     0     0 15647.4365    0 1664 16383.0000 15647.4365  4.49%     -  199s
     0     0 15648.4847    0 1676 16383.0000 15648.4847  4.48%     -  202s
     0     0 15649.0826    0 1677 16383.0000 15649.0826  4.48%     -  205s
     0     0 15649.5487    0 1702 16383.0000 15649.5487  4.48%     -  206s
     0     0 15649.7294    0 1709 16383.0000 15649.7294  4.48%     -  207s
     0     0 15655.9234    0 1654 16383.0000 15655.9234  4.44%     -  214s
     0     0 15657.5718    0 1688 16383.0000 15657.5718  4.43%     -  237s
     0     0 15658.5947    0 1690 16383.0000 15658.5947  4.42%     -  240s
     0     0 15659.1526    0 1738 16383.0000 15659.1526  4.42%     -  242s
     0     0 15659.5248    0 1718 16383.0000 15659.5248  4.42%     -  244s
     0     0 15659.7108    0 1735 16383.0000 15659.7108  4.41%     -  245s
     0     0 15661.8894    0 1737 16383.0000 15661.8894  4.40%     -  250s
H    0     0                    16365.000000 15661.8894  4.30%     -  250s
     0     0 15663.2456    0 1760 16365.0000 15663.2456  4.29%     -  253s
     0     0 15663.8786    0 1762 16365.0000 15663.8786  4.28%     -  256s
     0     0 15664.3354    0 1778 16365.0000 15664.3354  4.28%     -  258s
     0     0 15664.3856    0 1790 16365.0000 15664.3856  4.28%     -  259s
     0     0 15666.1901    0 1795 16365.0000 15666.1901  4.27%     -  264s
     0     0 15666.7746    0 1781 16365.0000 15666.7746  4.27%     -  267s
     0     0 15667.4922    0 1788 16365.0000 15667.4922  4.26%     -  270s
     0     0 15667.7532    0 1880 16365.0000 15667.7532  4.26%     -  272s
     0     0 15670.3221    0 1848 16365.0000 15670.3221  4.24%     -  278s
     0     0 15671.8937    0 1824 16365.0000 15671.8937  4.24%     -  283s
     0     0 15672.5761    0 1861 16365.0000 15672.5761  4.23%     -  286s
     0     0 15672.9299    0 1871 16365.0000 15672.9299  4.23%     -  288s
     0     0 15674.8840    0 1869 16365.0000 15674.8840  4.22%     -  293s
     0     0 15675.6793    0 1856 16365.0000 15675.6793  4.21%     -  296s
     0     0 15676.5677    0 1871 16365.0000 15676.5677  4.21%     -  299s
     0     0 15677.1999    0 1884 16365.0000 15677.1999  4.20%     -  302s
     0     0 15677.4785    0 1907 16365.0000 15677.4785  4.20%     -  304s
     0     0 15679.9220    0 1869 16365.0000 15679.9220  4.19%     -  310s
     0     0 15680.6788    0 1859 16365.0000 15680.6788  4.18%     -  313s
     0     0 15681.0749    0 1901 16365.0000 15681.0749  4.18%     -  315s
     0     0 15681.2642    0 1881 16365.0000 15681.2642  4.18%     -  317s
     0     0 15683.4285    0 1866 16365.0000 15683.4285  4.16%     -  322s
     0     0 15683.4285    0 1852 16365.0000 15683.4285  4.16%     -  323s
     0     2 15683.4314    0 1846 16365.0000 15683.4314  4.16%     -  353s
     1     4 15683.9556    1 1799 16365.0000 15683.4314  4.16%  2906  359s
     3     8 15696.0363    2 1692 16365.0000 15683.9556  4.16% 10484  373s

Cutting planes:
  Cover: 1
  Clique: 294
  MIR: 564
  StrongCG: 295
  GUB cover: 298
  Zero half: 1
  RLT: 3

Explored 7 nodes (633328 simplex iterations) in 380.01 seconds (1008.58 work units)
Thread count was 8 (of 8 available processors)

Solution count 7: 16365 16383 16384 ... 16474

Time limit reached
Best objective 1.636500000000e+04, best bound 1.568500000000e+04, gap 4.1552%
